10
18
0 1 1 2
0 2 2 3.34
0 3 12 9
0 4 1 2
0 5 1 2
0 6 1 2
0 7 1 2
0 8 2 1
0 9 2 1
1 2 1 2
1 3 2 1
1 4 1 2
1 5 1 2
1 6 2 1
1 7 2 1
1 8 1 2
1 9 1 2
2 3 1 2
2 4 2 1
2 5 2 1
2 6 1 2
2 7 1 2
2 8 1 2
2 9 1 2
3 4 2 4
3 5 2 4
3 6 2 1
3 7 2 1
3 8 2 4
3 9 2 4
4 5 2 1
4 6 1 2
4 7 1 2
4 8 1 2
4 9 1 2
5 6 1 2
5 7 1 2
5 8 1 2.2
5 9 1.01 2.01
6 7 2 1
6 8 1 2
6 9 1 2
7 8 0 0.5
7 9 0 0.5
8 9 5 1
